# Objective value = 113
x_1_1 1
q_1_1 0
x_1_2 1
q_1_2 0
x_2_1 0
q_2_1 0
x_2_2 3
q_2_2 0
x_2_3 3
q_2_3 0
x_2_4 3
q_2_4 0
x_3_1 9
q_3_1 0
x_3_2 10
q_3_2 0
x_3_3 13
q_3_3 0
x_3_4 13
q_3_4 0
x_4_1 36
q_4_1 0
x_4_2 113
q_4_2 0
